12
benzene (RDKit ETKDGv3 + MMFF94, seed 0xc0ffee)
C      1.062545    -0.903585    -0.008417
C     -0.251058    -1.371946     0.016551
C     -1.313603    -0.468361     0.024991
C     -1.062545     0.903585     0.008431
C      0.251058     1.371945    -0.016576
C      1.313603     0.468361    -0.024984
H      1.890388    -1.607585    -0.014965
H     -0.446657    -2.440851     0.029435
H     -2.337052    -0.833264     0.044470
H     -1.890391     1.607581     0.015013
H      0.446663     2.440848    -0.029507
H      2.337050     0.833272    -0.044443
